NAME          
ROWS
 N  OBJ
 L  c1
COLUMNS
    MARKER    'MARKER'                 'INTORG'
    x[1]      c1        336
    x[1]      OBJ       -875
    x[2]      c1        422
    x[2]      OBJ       -885
    x[3]      c1        500
    x[3]      OBJ       -180
    x[4]      c1        874
    x[4]      OBJ       -787
    x[5]      c1        529
    x[5]      OBJ       -620
    x[6]      c1        609
    x[6]      OBJ       -85
    x[7]      c1        965
    x[7]      OBJ       -353
    x[8]      c1        235
    x[8]      OBJ       -173
    x[9]      c1        811
    x[9]      OBJ       -373
    x[10]     c1        965
    x[10]     OBJ       -497
    x[11]     c1        337
    x[11]     OBJ       -408
    x[12]     c1        65
    x[12]     OBJ       -991
    x[13]     c1        891
    x[13]     OBJ       -871
    x[14]     c1        171
    x[14]     OBJ       -976
    x[15]     c1        319
    x[15]     OBJ       -411
    x[16]     c1        731
    x[16]     OBJ       -673
    x[17]     c1        5
    x[17]     OBJ       -841
    x[18]     c1        839
    x[18]     OBJ       -718
    x[19]     c1        814
    x[19]     OBJ       -648
    x[20]     c1        613
    x[20]     OBJ       -116
    x[21]     c1        621
    x[21]     OBJ       -821
    x[22]     c1        108
    x[22]     OBJ       -677
    x[23]     c1        110
    x[23]     OBJ       -694
    x[24]     c1        857
    x[24]     OBJ       -370
    x[25]     c1        536
    x[25]     OBJ       -970
    x[26]     c1        303
    x[26]     OBJ       -807
    x[27]     c1        231
    x[27]     OBJ       -503
    x[28]     c1        852
    x[28]     OBJ       -605
    x[29]     c1        270
    x[29]     OBJ       -445
    x[30]     c1        829
    x[30]     OBJ       -825
    x[31]     c1        126
    x[31]     OBJ       -227
    x[32]     c1        177
    x[32]     OBJ       -501
    x[33]     c1        200
    x[33]     OBJ       -944
    x[34]     c1        784
    x[34]     OBJ       -96
    x[35]     c1        210
    x[35]     OBJ       -699
    x[36]     c1        551
    x[36]     OBJ       -376
    x[37]     c1        91
    x[37]     OBJ       -211
    x[38]     c1        693
    x[38]     OBJ       -467
    x[39]     c1        332
    x[39]     OBJ       -376
    x[40]     c1        30
    x[40]     OBJ       -62
    x[41]     c1        82
    x[41]     OBJ       -232
    x[42]     c1        585
    x[42]     OBJ       -527
    x[43]     c1        724
    x[43]     OBJ       -182
    x[44]     c1        386
    x[44]     OBJ       -718
    x[45]     c1        855
    x[45]     OBJ       -534
    x[46]     c1        491
    x[46]     OBJ       -319
    x[47]     c1        602
    x[47]     OBJ       -524
    x[48]     c1        639
    x[48]     OBJ       -795
    x[49]     c1        610
    x[49]     OBJ       -375
    x[50]     c1        154
    x[50]     OBJ       -129
    x[51]     c1        107
    x[51]     OBJ       -540
    x[52]     c1        738
    x[52]     OBJ       -925
    x[53]     c1        759
    x[53]     OBJ       -897
    x[54]     c1        171
    x[54]     OBJ       -684
    x[55]     c1        334
    x[55]     OBJ       -445
    x[56]     c1        190
    x[56]     OBJ       -218
    x[57]     c1        541
    x[57]     OBJ       -223
    x[58]     c1        227
    x[58]     OBJ       -703
    x[59]     c1        512
    x[59]     OBJ       -877
    x[60]     c1        72
    x[60]     OBJ       -849
    x[61]     c1        482
    x[61]     OBJ       -900
    x[62]     c1        491
    x[62]     OBJ       -695
    x[63]     c1        139
    x[63]     OBJ       -919
    x[64]     c1        967
    x[64]     OBJ       -568
    x[65]     c1        999
    x[65]     OBJ       -111
    x[66]     c1        397
    x[66]     OBJ       -69
    x[67]     c1        783
    x[67]     OBJ       -182
    x[68]     c1        567
    x[68]     OBJ       -729
    x[69]     c1        691
    x[69]     OBJ       -78
    x[70]     c1        218
    x[70]     OBJ       -964
    x[71]     c1        256
    x[71]     OBJ       -166
    x[72]     c1        394
    x[72]     OBJ       -941
    x[73]     c1        567
    x[73]     OBJ       -399
    x[74]     c1        626
    x[74]     OBJ       -575
    x[75]     c1        192
    x[75]     OBJ       -418
RHS
    rhs       c1        17745
RANGES
BOUNDS
 LO bounds    x[1]      0
 PL bounds    x[1]
 LO bounds    x[2]      0
 PL bounds    x[2]
 LO bounds    x[3]      0
 PL bounds    x[3]
 LO bounds    x[4]      0
 PL bounds    x[4]
 LO bounds    x[5]      0
 PL bounds    x[5]
 LO bounds    x[6]      0
 PL bounds    x[6]
 LO bounds    x[7]      0
 PL bounds    x[7]
 LO bounds    x[8]      0
 PL bounds    x[8]
 LO bounds    x[9]      0
 PL bounds    x[9]
 LO bounds    x[10]     0
 PL bounds    x[10]
 LO bounds    x[11]     0
 PL bounds    x[11]
 LO bounds    x[12]     0
 PL bounds    x[12]
 LO bounds    x[13]     0
 PL bounds    x[13]
 LO bounds    x[14]     0
 PL bounds    x[14]
 LO bounds    x[15]     0
 PL bounds    x[15]
 LO bounds    x[16]     0
 PL bounds    x[16]
 LO bounds    x[17]     0
 PL bounds    x[17]
 LO bounds    x[18]     0
 PL bounds    x[18]
 LO bounds    x[19]     0
 PL bounds    x[19]
 LO bounds    x[20]     0
 PL bounds    x[20]
 LO bounds    x[21]     0
 PL bounds    x[21]
 LO bounds    x[22]     0
 PL bounds    x[22]
 LO bounds    x[23]     0
 PL bounds    x[23]
 LO bounds    x[24]     0
 PL bounds    x[24]
 LO bounds    x[25]     0
 PL bounds    x[25]
 LO bounds    x[26]     0
 PL bounds    x[26]
 LO bounds    x[27]     0
 PL bounds    x[27]
 LO bounds    x[28]     0
 PL bounds    x[28]
 LO bounds    x[29]     0
 PL bounds    x[29]
 LO bounds    x[30]     0
 PL bounds    x[30]
 LO bounds    x[31]     0
 PL bounds    x[31]
 LO bounds    x[32]     0
 PL bounds    x[32]
 LO bounds    x[33]     0
 PL bounds    x[33]
 LO bounds    x[34]     0
 PL bounds    x[34]
 LO bounds    x[35]     0
 PL bounds    x[35]
 LO bounds    x[36]     0
 PL bounds    x[36]
 LO bounds    x[37]     0
 PL bounds    x[37]
 LO bounds    x[38]     0
 PL bounds    x[38]
 LO bounds    x[39]     0
 PL bounds    x[39]
 LO bounds    x[40]     0
 PL bounds    x[40]
 LO bounds    x[41]     0
 PL bounds    x[41]
 LO bounds    x[42]     0
 PL bounds    x[42]
 LO bounds    x[43]     0
 PL bounds    x[43]
 LO bounds    x[44]     0
 PL bounds    x[44]
 LO bounds    x[45]     0
 PL bounds    x[45]
 LO bounds    x[46]     0
 PL bounds    x[46]
 LO bounds    x[47]     0
 PL bounds    x[47]
 LO bounds    x[48]     0
 PL bounds    x[48]
 LO bounds    x[49]     0
 PL bounds    x[49]
 LO bounds    x[50]     0
 PL bounds    x[50]
 LO bounds    x[51]     0
 PL bounds    x[51]
 LO bounds    x[52]     0
 PL bounds    x[52]
 LO bounds    x[53]     0
 PL bounds    x[53]
 LO bounds    x[54]     0
 PL bounds    x[54]
 LO bounds    x[55]     0
 PL bounds    x[55]
 LO bounds    x[56]     0
 PL bounds    x[56]
 LO bounds    x[57]     0
 PL bounds    x[57]
 LO bounds    x[58]     0
 PL bounds    x[58]
 LO bounds    x[59]     0
 PL bounds    x[59]
 LO bounds    x[60]     0
 PL bounds    x[60]
 LO bounds    x[61]     0
 PL bounds    x[61]
 LO bounds    x[62]     0
 PL bounds    x[62]
 LO bounds    x[63]     0
 PL bounds    x[63]
 LO bounds    x[64]     0
 PL bounds    x[64]
 LO bounds    x[65]     0
 PL bounds    x[65]
 LO bounds    x[66]     0
 PL bounds    x[66]
 LO bounds    x[67]     0
 PL bounds    x[67]
 LO bounds    x[68]     0
 PL bounds    x[68]
 LO bounds    x[69]     0
 PL bounds    x[69]
 LO bounds    x[70]     0
 PL bounds    x[70]
 LO bounds    x[71]     0
 PL bounds    x[71]
 LO bounds    x[72]     0
 PL bounds    x[72]
 LO bounds    x[73]     0
 PL bounds    x[73]
 LO bounds    x[74]     0
 PL bounds    x[74]
 LO bounds    x[75]     0
 PL bounds    x[75]
ENDATA
